\ LP format - for model browsing. Use MPS format to capture full model detail.
Maximize
  8 x_1 + 10 x_2 + 3 x_3 + 4 x_4 + 9 x_5 + 5 x_6 + 8 x_7 + 7 x_8 + x_9
   + 4 x_10 + 8 x_11 + x_12 + 10 x_13 + 9 x_14 + 8 x_15 + 3 x_16 + 2 x_17
   + 2 x_18 + 4 x_19 + 8 x_20 + 8 x_21 + 9 x_22 + 3 x_23 + 2 x_24 + 8 x_25
Subject To
 C_1: 10 x_2 + 4 x_6 + 4 x_8 + 9 x_13 + 5 x_17 + 8 x_18 + 7 x_21 + 6 x_23
   + 6 x_25 <= 29
 C_2: 9 x_1 + 3 x_2 + 9 x_5 + 2 x_6 + 8 x_7 + 5 x_9 + 3 x_15 + 6 x_16
   + 3 x_17 + 6 x_19 <= 27
 C_3: 3 x_1 + 10 x_2 + 6 x_3 + 6 x_9 + 4 x_10 + 8 x_11 + x_14 + 5 x_17
   + 2 x_18 + 9 x_20 + 5 x_21 + x_22 + 7 x_24 + 6 x_25 <= 36
 C_4: 3 x_2 + 6 x_6 + 6 x_7 + 3 x_8 + 5 x_15 + 4 x_17 + 9 x_18 + 2 x_21
   + 10 x_22 + 5 x_23 + 10 x_24 <= 31
 C_5: 4 x_3 + 9 x_7 + 7 x_8 + 6 x_9 + 5 x_10 + 3 x_17 + 9 x_18 + 8 x_21
   + 10 x_22 + 7 x_23 + 6 x_24 <= 37
 C_6: 4 x_2 + 2 x_4 + 7 x_6 + 4 x_7 + 7 x_10 + 7 x_11 + 8 x_12 + 5 x_14
   + 4 x_17 + 7 x_18 + 3 x_22 + 7 x_25 <= 32
 C_7: 3 x_2 + 2 x_6 + 10 x_7 + 9 x_8 + 8 x_9 + 3 x_10 + 9 x_11 + 2 x_12
   + 2 x_13 + 8 x_14 + 7 x_15 + x_18 + 8 x_19 + 9 x_20 + 7 x_21 + 3 x_22
   + 2 x_24 <= 46
 C_8: 10 x_1 + 4 x_2 + 3 x_6 + 2 x_10 + 2 x_12 + 8 x_14 + 5 x_15 + x_17
   + 8 x_20 + 2 x_21 + 5 x_22 + 2 x_23 <= 26
 C_9: 6 x_1 + 7 x_4 + x_6 + 5 x_11 + 8 x_12 + 5 x_13 + 5 x_16 + x_17
   + 7 x_18 + 6 x_19 + 9 x_24 <= 30
 C_10: 2 x_2 + 7 x_5 + 3 x_7 + 8 x_9 + 7 x_12 + 7 x_14 + x_15 + 8 x_16
   + 6 x_17 + 3 x_22 + 2 x_24 <= 27
Bounds
Binaries
 x_1 x_2 x_3 x_4 x_5 x_6 x_7 x_8 x_9 x_10 x_11 x_12 x_13 x_14 x_15 x_16
 x_17 x_18 x_19 x_20 x_21 x_22 x_23 x_24 x_25
End
